11111111111111111111
11111111111111111111
11111111111111111111
11111000000000011111
11111000000000011111
11111111111111111111
11111111111111111111
11111111111111111111
11111111111111111111
11111111111111111111
11111111111111111111
11111111111111111111
11111111111111111111
11111111111111111111
11111111111111111111
11111111111111111111
9 3
5
4 0 8 6
0 3 4 10
3 0 7 10
2 1 10 10
1 1 13 10